objective value:                      2.6466957492783
x(0,4,0)                                            1 	(obj:0)
x(1,10,0)                                           1 	(obj:0)
x(2,3,0)                                            1 	(obj:0)
x(3,1,0)                                            1 	(obj:0)
x(4,2,0)                                            1 	(obj:0)
x(10,0,0)                                           1 	(obj:0)
xc(0,10)                                            1 	(obj:0)
xc(1,6)                                             1 	(obj:0)
xc(2,9)                                             1 	(obj:0)
xc(3,6)                                             1 	(obj:0)
u(1,0)                               1.77527661825198 	(obj:0)
u(2,0)                              0.593130315470686 	(obj:0)
u(3,0)                               1.68735709897027 	(obj:0)
u(4,0)                              0.347515814860736 	(obj:0)
u(10,0)                               2.6466957492783 	(obj:0)
u(11,0)                               0.6160448757793 	(obj:0)
u(12,0)                               0.5539643713335 	(obj:0)
u(13,0)                               0.5322781109445 	(obj:0)
u(14,0)                             0.320036426844799 	(obj:0)
u(15,0)                               0.1878804321611 	(obj:0)
u(16,0)                               0.5223380257309 	(obj:0)
u(17,0)                                0.298328254847 	(obj:0)
u(18,0)                               0.3558352171223 	(obj:0)
u(19,0)                             0.686345317808501 	(obj:0)
f(0,4,0)                                            1 	(obj:0)
f(0,4,1)                                            1 	(obj:0)
f(0,4,3)                                            1 	(obj:0)
f(1,10,1)                                           1 	(obj:0)
f(1,10,3)                                           1 	(obj:0)
f(2,9,0)                                            1 	(obj:0)
f(2,9,1)                                            1 	(obj:0)
f(2,9,2)                                            1 	(obj:0)
f(2,9,3)                                            1 	(obj:0)
f(2,9,4)                                            1 	(obj:0)
f(3,1,3)                                            1 	(obj:0)
f(4,2,0)                                            1 	(obj:0)
f(4,2,1)                                            1 	(obj:0)
f(4,2,3)                                            1 	(obj:0)
f(4,2,4)                                            1 	(obj:0)
f(10,0,1)                                           1 	(obj:0)
f(10,0,3)                                           1 	(obj:0)
z_r(0,)                               2.6466957492783 	(obj:0)
z                                     2.6466957492783 	(obj:1)
